; PUSH cw_4 DUP1 MLOAD PUSH cw_3 SWAP1 => PUSH cw_4 PUSH cw_3 PUSH cw_4 MLOAD
(set-option :produce-proofs true)
; 
(set-info :status unknown)
(declare-fun storage_t ((_ BitVec 256) (_ BitVec 256) (_ BitVec 256) Int (_ BitVec 256)) (_ BitVec 256))
(declare-fun w_3 () (_ BitVec 256))
(declare-fun w_4 () (_ BitVec 256))
(declare-fun storage_s ((_ BitVec 256) (_ BitVec 256) (_ BitVec 256) Int (_ BitVec 256)) (_ BitVec 256))
(declare-fun exc_halt_t (Int) Bool)
(declare-fun exc_halt_s (Int) Bool)
(declare-fun stack_t ((_ BitVec 256) (_ BitVec 256) (_ BitVec 256) Int (_ BitVec 6)) (_ BitVec 256))
(declare-fun stack_s ((_ BitVec 256) (_ BitVec 256) (_ BitVec 256) Int (_ BitVec 6)) (_ BitVec 256))
(declare-fun sc_t (Int) (_ BitVec 6))
(declare-fun sc_s (Int) (_ BitVec 6))
(declare-fun used_gas_t ((_ BitVec 256) (_ BitVec 256) (_ BitVec 256) Int) Int)
(declare-fun used_gas_s ((_ BitVec 256) (_ BitVec 256) (_ BitVec 256) Int) Int)
(declare-fun f_MLOAD ((_ BitVec 256) (_ BitVec 256) (_ BitVec 256) (_ BitVec 256)) (_ BitVec 256))
(assert
 (exists ((x_MLOAD_0 (_ BitVec 256)) )(let (($x22 (forall ((w (_ BitVec 256)) )(let ((?x11587 (storage_t w_4 w_3 x_MLOAD_0 4 w)))
 (let ((?x7577 (storage_s w_4 w_3 x_MLOAD_0 5 w)))
 (= ?x7577 ?x11587))))
 ))
 (let (($x7854 (exc_halt_t 4)))
 (let (($x11317 (exc_halt_s 5)))
 (let (($x7766 (= $x11317 $x7854)))
 (let (($x1394 (forall ((n (_ BitVec 6)) )(let ((?x425 (stack_t w_4 w_3 x_MLOAD_0 4 n)))
 (let ((?x5434 (stack_s w_4 w_3 x_MLOAD_0 5 n)))
 (let (($x6142 (= ?x5434 ?x425)))
 (let ((?x4818 (sc_t 4)))
 (let (($x177 (bvsle ?x4818 n)))
 (or $x177 $x6142)))))))
 ))
 (let ((?x4818 (sc_t 4)))
 (let ((?x4319 (sc_s 5)))
 (let (($x10151 (= ?x4319 ?x4818)))
 (let ((?x8596 (used_gas_t w_4 w_3 x_MLOAD_0 0)))
 (let ((?x10690 (used_gas_s w_4 w_3 x_MLOAD_0 0)))
 (let (($x188 (= ?x10690 ?x8596)))
 (let (($x9032 (forall ((w (_ BitVec 256)) )(let ((?x4611 (storage_t w_4 w_3 x_MLOAD_0 0 w)))
 (let ((?x8452 (storage_s w_4 w_3 x_MLOAD_0 0 w)))
 (= ?x8452 ?x4611))))
 ))
 (let (($x56 (exc_halt_t 0)))
 (let (($x57 (exc_halt_s 0)))
 (let (($x58 (= $x57 $x56)))
 (let (($x7213 (forall ((n (_ BitVec 6)) )(let ((?x8437 (stack_t w_4 w_3 x_MLOAD_0 0 n)))
 (let ((?x9834 (stack_s w_4 w_3 x_MLOAD_0 0 n)))
 (let (($x7799 (= ?x9834 ?x8437)))
 (let ((?x63 (sc_t 0)))
 (let (($x3635 (bvsle ?x63 n)))
 (or $x3635 $x7799)))))))
 ))
 (let ((?x63 (sc_t 0)))
 (let ((?x72 (sc_s 0)))
 (let (($x73 (= ?x72 ?x63)))
 (let (($x9118 (= $x7854 (or (exc_halt_t 3) (not (bvsle (_ bv0 6) (bvadd (_ bv63 6) (sc_t 3))))))))
 (let (($x8518 (forall ((w (_ BitVec 256)) )(let ((?x6064 (storage_t w_4 w_3 x_MLOAD_0 3 w)))
 (let ((?x11587 (storage_t w_4 w_3 x_MLOAD_0 4 w)))
 (= ?x11587 ?x6064))))
 ))
 (let (($x5936 (forall ((n (_ BitVec 6)) )(let ((?x2318 (stack_t w_4 w_3 x_MLOAD_0 3 n)))
 (let ((?x425 (stack_t w_4 w_3 x_MLOAD_0 4 n)))
 (or (bvsle (bvadd (_ bv63 6) (sc_t 3)) n) (= ?x425 ?x2318)))))
 ))
 (let ((?x11304 (sc_t 3)))
 (let (($x8262 (= ?x4818 ?x11304)))
 (let (($x7783 (= (used_gas_t w_4 w_3 x_MLOAD_0 4) (+ 3 (used_gas_t w_4 w_3 x_MLOAD_0 3)))))
 (let ((?x5363 (f_MLOAD w_4 w_3 x_MLOAD_0 (stack_t w_4 w_3 x_MLOAD_0 3 (bvadd (_ bv63 6) ?x11304)))))
 (let (($x3986 (exc_halt_t 2)))
 (let (($x6726 (or $x3986 (not (= ((_ extract 6 6) (bvadd (_ bv1 7) (concat (_ bv0 1) (sc_t 2)))) (_ bv0 1))))))
 (let (($x3614 (exc_halt_t 3)))
 (let (($x6014 (= $x3614 $x6726)))
 (let (($x2573 (forall ((w (_ BitVec 256)) )(let ((?x2905 (storage_t w_4 w_3 x_MLOAD_0 2 w)))
 (let ((?x6064 (storage_t w_4 w_3 x_MLOAD_0 3 w)))
 (= ?x6064 ?x2905))))
 ))
 (let (($x4743 (forall ((n (_ BitVec 6)) )(let ((?x5000 (stack_t w_4 w_3 x_MLOAD_0 2 n)))
 (let ((?x2318 (stack_t w_4 w_3 x_MLOAD_0 3 n)))
 (let ((?x2714 (sc_t 2)))
 (let (($x10909 (bvsle ?x2714 n)))
 (or $x10909 (= ?x2318 ?x5000)))))))
 ))
 (let (($x4829 (= ?x11304 (bvadd (_ bv1 6) (sc_t 2)))))
 (let ((?x11152 (used_gas_t w_4 w_3 x_MLOAD_0 3)))
 (let (($x10316 (not (= ((_ extract 6 6) (bvadd (_ bv1 7) (concat (_ bv0 1) (sc_t 1)))) (_ bv0 1)))))
 (let (($x8377 (exc_halt_t 1)))
 (let (($x9175 (forall ((w (_ BitVec 256)) )(let ((?x9929 (storage_t w_4 w_3 x_MLOAD_0 1 w)))
 (let ((?x2905 (storage_t w_4 w_3 x_MLOAD_0 2 w)))
 (= ?x2905 ?x9929))))
 ))
 (let (($x562 (forall ((n (_ BitVec 6)) )(let ((?x4361 (stack_t w_4 w_3 x_MLOAD_0 1 n)))
 (let ((?x5000 (stack_t w_4 w_3 x_MLOAD_0 2 n)))
 (or (bvsle (sc_t 1) n) (= ?x5000 ?x4361)))))
 ))
 (let ((?x2714 (sc_t 2)))
 (let (($x832 (= ?x2714 (bvadd (_ bv1 6) (sc_t 1)))))
 (let ((?x3440 (used_gas_t w_4 w_3 x_MLOAD_0 2)))
 (let (($x343 (= $x8377 (or $x56 (not (= ((_ extract 6 6) (bvadd (_ bv1 7) (concat (_ bv0 1) ?x63))) (_ bv0 1)))))))
 (let (($x1520 (forall ((w (_ BitVec 256)) )(let ((?x4611 (storage_t w_4 w_3 x_MLOAD_0 0 w)))
 (let ((?x9929 (storage_t w_4 w_3 x_MLOAD_0 1 w)))
 (= ?x9929 ?x4611))))
 ))
 (let (($x6074 (forall ((n (_ BitVec 6)) )(let ((?x8437 (stack_t w_4 w_3 x_MLOAD_0 0 n)))
 (let ((?x4361 (stack_t w_4 w_3 x_MLOAD_0 1 n)))
 (let ((?x63 (sc_t 0)))
 (let (($x3635 (bvsle ?x63 n)))
 (or $x3635 (= ?x4361 ?x8437)))))))
 ))
 (let ((?x7154 (sc_t 1)))
 (let (($x5902 (= ?x7154 (bvadd (_ bv1 6) ?x63))))
 (let (($x10183 (= $x11317 (or (exc_halt_s 4) (not (bvsle (_ bv0 6) (bvadd (_ bv62 6) (sc_s 4))))))))
 (let (($x7027 (forall ((w (_ BitVec 256)) )(let ((?x3487 (storage_s w_4 w_3 x_MLOAD_0 4 w)))
 (let ((?x7577 (storage_s w_4 w_3 x_MLOAD_0 5 w)))
 (= ?x7577 ?x3487))))
 ))
 (let (($x9829 (forall ((n (_ BitVec 6)) )(let ((?x4305 (sc_s 4)))
 (let ((?x8840 (bvadd (_ bv62 6) ?x4305)))
 (let (($x3207 (bvsle ?x8840 n)))
 (let ((?x10823 (stack_s w_4 w_3 x_MLOAD_0 4 n)))
 (let ((?x5434 (stack_s w_4 w_3 x_MLOAD_0 5 n)))
 (or (= ?x5434 ?x10823) $x3207)))))))
 ))
 (let ((?x4305 (sc_s 4)))
 (let (($x1509 (= ?x4319 ?x4305)))
 (let (($x3121 (= (used_gas_s w_4 w_3 x_MLOAD_0 5) (+ 3 (used_gas_s w_4 w_3 x_MLOAD_0 4)))))
 (let (($x364 (= (stack_s w_4 w_3 x_MLOAD_0 5 (bvadd (_ bv62 6) ?x4319)) (stack_s w_4 w_3 x_MLOAD_0 4 (bvadd (_ bv63 6) ?x4305)))))
 (let (($x5479 (= (stack_s w_4 w_3 x_MLOAD_0 5 (bvadd (_ bv63 6) ?x4319)) (stack_s w_4 w_3 x_MLOAD_0 4 (bvadd (_ bv62 6) ?x4305)))))
 (let (($x292 (exc_halt_s 3)))
 (let (($x9861 (or $x292 (not (= ((_ extract 6 6) (bvadd (_ bv1 7) (concat (_ bv0 1) (sc_s 3)))) (_ bv0 1))))))
 (let (($x7172 (exc_halt_s 4)))
 (let (($x6073 (= $x7172 $x9861)))
 (let (($x9334 (forall ((w (_ BitVec 256)) )(let ((?x380 (storage_s w_4 w_3 x_MLOAD_0 3 w)))
 (let ((?x3487 (storage_s w_4 w_3 x_MLOAD_0 4 w)))
 (= ?x3487 ?x380))))
 ))
 (let (($x11610 (forall ((n (_ BitVec 6)) )(let ((?x8807 (stack_s w_4 w_3 x_MLOAD_0 3 n)))
 (let ((?x10823 (stack_s w_4 w_3 x_MLOAD_0 4 n)))
 (let ((?x275 (sc_s 3)))
 (let (($x1036 (bvsle ?x275 n)))
 (or $x1036 (= ?x10823 ?x8807)))))))
 ))
 (let (($x4585 (= ?x4305 (bvadd (_ bv1 6) (sc_s 3)))))
 (let ((?x10535 (used_gas_s w_4 w_3 x_MLOAD_0 4)))
 (let (($x1646 (= $x292 (or (exc_halt_s 2) (not (bvsle (_ bv0 6) (bvadd (_ bv63 6) (sc_s 2))))))))
 (let (($x3971 (forall ((w (_ BitVec 256)) )(let ((?x4192 (storage_s w_4 w_3 x_MLOAD_0 2 w)))
 (let ((?x380 (storage_s w_4 w_3 x_MLOAD_0 3 w)))
 (= ?x380 ?x4192))))
 ))
 (let (($x4567 (forall ((n (_ BitVec 6)) )(let ((?x1760 (stack_s w_4 w_3 x_MLOAD_0 2 n)))
 (let ((?x8807 (stack_s w_4 w_3 x_MLOAD_0 3 n)))
 (let ((?x218 (sc_s 2)))
 (let ((?x5955 (bvadd (_ bv63 6) ?x218)))
 (let (($x2512 (bvsle ?x5955 n)))
 (or $x2512 (= ?x8807 ?x1760))))))))
 ))
 (let ((?x218 (sc_s 2)))
 (let ((?x275 (sc_s 3)))
 (let (($x3957 (= ?x275 ?x218)))
 (let ((?x5051 (used_gas_s w_4 w_3 x_MLOAD_0 3)))
 (let ((?x5955 (bvadd (_ bv63 6) ?x218)))
 (let ((?x3390 (stack_s w_4 w_3 x_MLOAD_0 2 ?x5955)))
 (let (($x1412 (= (stack_s w_4 w_3 x_MLOAD_0 3 (bvadd (_ bv63 6) ?x275)) (f_MLOAD w_4 w_3 x_MLOAD_0 ?x3390))))
 (let (($x189 (exc_halt_s 1)))
 (let (($x11261 (or $x189 (not (= ((_ extract 6 6) (bvadd (_ bv1 7) (concat (_ bv0 1) (sc_s 1)))) (_ bv0 1))) (not (bvsle (_ bv0 6) (bvadd (_ bv63 6) (sc_s 1)))))))
 (let (($x247 (exc_halt_s 2)))
 (let (($x6744 (= $x247 $x11261)))
 (let (($x6574 (forall ((w (_ BitVec 256)) )(let ((?x7964 (storage_s w_4 w_3 x_MLOAD_0 1 w)))
 (let ((?x4192 (storage_s w_4 w_3 x_MLOAD_0 2 w)))
 (= ?x4192 ?x7964))))
 ))
 (let (($x7513 (forall ((n (_ BitVec 6)) )(let ((?x154 (sc_s 1)))
 (let ((?x2974 (bvadd (_ bv63 6) ?x154)))
 (let (($x9963 (bvsle ?x2974 n)))
 (let ((?x3520 (stack_s w_4 w_3 x_MLOAD_0 1 n)))
 (let ((?x1760 (stack_s w_4 w_3 x_MLOAD_0 2 n)))
 (or (= ?x1760 ?x3520) $x9963)))))))
 ))
 (let (($x8546 (= ?x218 (bvadd (_ bv1 6) (sc_s 1)))))
 (let ((?x1420 (used_gas_s w_4 w_3 x_MLOAD_0 2)))
 (let ((?x154 (sc_s 1)))
 (let ((?x2974 (bvadd (_ bv63 6) ?x154)))
 (let ((?x9643 (stack_s w_4 w_3 x_MLOAD_0 1 ?x2974)))
 (let (($x4511 (= $x189 (or $x57 (not (= ((_ extract 6 6) (bvadd (_ bv1 7) (concat (_ bv0 1) ?x72))) (_ bv0 1)))))))
 (let (($x958 (forall ((w (_ BitVec 256)) )(let ((?x8452 (storage_s w_4 w_3 x_MLOAD_0 0 w)))
 (let ((?x7964 (storage_s w_4 w_3 x_MLOAD_0 1 w)))
 (= ?x7964 ?x8452))))
 ))
 (let (($x6175 (forall ((n (_ BitVec 6)) )(let ((?x9834 (stack_s w_4 w_3 x_MLOAD_0 0 n)))
 (let ((?x3520 (stack_s w_4 w_3 x_MLOAD_0 1 n)))
 (or (= ?x3520 ?x9834) (bvsle (sc_s 0) n)))))
 ))
 (let (($x11502 (forall ((w0 (_ BitVec 256)) )(let ((?x8526 (ite (= (stack_s w_4 w_3 x_MLOAD_0 2 (bvadd (_ bv63 6) (sc_s 2))) w0) x_MLOAD_0 (_ bv0 256))))
 (let ((?x8578 (f_MLOAD w_4 w_3 x_MLOAD_0 w0)))
 (= ?x8578 ?x8526))))
 ))
 (let (($x9512 (forall ((w (_ BitVec 256)) )(let ((?x8452 (storage_s w_4 w_3 x_MLOAD_0 0 w)))
 (= ?x8452 (_ bv0 256))))
 ))
 (let (($x5967 (= ?x10690 0)))
 (let (($x4768 (not $x57)))
 (let (($x1074 (= ?x72 (_ bv0 6))))
 (and $x1074 $x4768 $x5967 $x9512 $x11502 (= (stack_s w_4 w_3 x_MLOAD_0 1 ?x72) w_4) (= (used_gas_s w_4 w_3 x_MLOAD_0 1) (+ 3 ?x10690)) (= ?x154 (bvadd (_ bv1 6) ?x72)) $x6175 $x958 $x4511 (= ?x3390 ?x9643) (= (stack_s w_4 w_3 x_MLOAD_0 2 ?x2974) ?x9643) (= ?x1420 (+ 3 (used_gas_s w_4 w_3 x_MLOAD_0 1))) $x8546 $x7513 $x6574 $x6744 $x1412 (= ?x5051 (+ 3 ?x1420)) $x3957 $x4567 $x3971 $x1646 (= (stack_s w_4 w_3 x_MLOAD_0 4 ?x275) w_3) (= ?x10535 (+ 3 ?x5051)) $x4585 $x11610 $x9334 $x6073 $x5479 $x364 $x3121 $x1509 $x9829 $x7027 $x10183 (= (stack_t w_4 w_3 x_MLOAD_0 1 ?x63) w_4) (= (used_gas_t w_4 w_3 x_MLOAD_0 1) (+ 3 ?x8596)) $x5902 $x6074 $x1520 $x343 (= (stack_t w_4 w_3 x_MLOAD_0 2 ?x7154) w_3) (= ?x3440 (+ 3 (used_gas_t w_4 w_3 x_MLOAD_0 1))) $x832 $x562 $x9175 (= $x3986 (or $x8377 $x10316)) (= (stack_t w_4 w_3 x_MLOAD_0 3 ?x2714) w_4) (= ?x11152 (+ 3 ?x3440)) $x4829 $x4743 $x2573 $x6014 (= (stack_t w_4 w_3 x_MLOAD_0 4 (bvadd (_ bv63 6) ?x4818)) ?x5363) $x7783 $x8262 $x5936 $x8518 $x9118 $x73 $x7213 $x58 $x9032 $x188 (not (and $x10151 $x1394 $x7766 $x22)))))))))))))))))))))))))))))))))))))))))))))))))))))))))))))))))))))))))))))))))))))))))))))))
 )
(check-sat)
(get-proof)
